



%%%%%%%%%%%%%%%%%%%%%%%%%%%%%%%%%%%%%
% Pretty print for Table & State Test
%%%%%%%%%%%%%%%%%%%%%%%%%%%%%%%%%%%%%
output["~~~~~~~~~~~~~~~~~~~~~~~~~~~~~~~~~~~~~~~~~~~~~~~~"];
output["\nComplexity of Rectangle Attack on Deoxys-BC-384: " ++ "\n\n"];


output [
    "Parameters:\n----------------------\n" ++ 
    "rb=" ++ show_int(2,rb) ++ " | rb'=" ++ show_int(2,rb_p) ++ " | mb=" ++ show_int(2,mb) ++ " | mb'=" ++ show_int(2,mb_p) ++ "\n" ++
    "rf=" ++ show_int(2,rf) ++ " | rf'=" ++ show_int(2,rf_p) ++ " | mf=" ++ show_int(2,mf) ++ " | mf'=" ++ show_int(2,mf_p) ++ "\n" ++
    "----------------------\n"
];

output [
    "Prob.  : " ++ show_int(3, PrAtt) ++ "\n" ++
    "DataC  : " ++ show_int(3, DataC) ++ "\n" ++
    "MemoryC: " ++ show_int(3, MemoryC) ++ "\n" ++
    "TimeC  : " ++ show_int(3, TimeC) ++ 
    " [T1=" ++ show_int(3, T1) ++ 
    " | " ++ (if fix(chooseP) == 1 then "T2u=" ++ show_int(3, T2u) 
             else "T2l=" ++ show_int(3, T2l) endif) ++
    " | T3=" ++ show_int(3, T3) ++ " (epsilon=" ++ show(Tepsilon) ++ ")]\n\n" 
];